(set-info :smt-lib-version 2.7)
(set-logic QF_NIA)
(set-info :source  | 
Generated by: Johannes Bauer
Generated on: 2026-06-18
Generator: mgm A12 Test Data Generator
Application: ELSTER
Target solver: Z3, Yices2, CVC5
Script is based on the ELSTER form: capital gains tax registration (A / KapEStInvStG)
Characteristic of the form: easy.
In this script, all terms of the form (* x1 x2 x3 ...) are in the form (* x1 c2 c3 ...),
all terms of the form (div x y) are in the form (div x c) and the symbol mod is exclusively used in the form (mod x c),
where x, y, and x1, x2, x3 ... are free constants and c, c2, c3 ... are terms in the form n or (-n) for some numeral n.
The script starts with the base constraints, which define a valid data set for the corresponding form. After the first (push 1), control constraints follow.
The goal of the control constraints in this script is to fill up a data set with values, after the characteristics of the high test coverage were placed.
number variables: 162, number constraints: 150
"https://www.elster.de/eportal/start?locale=en_US"
"https://www.mgm-tp.com/q12-tdg.html"
"https://a12.ai/public-sector"
|)
(set-info :license "https://creativecommons.org/licenses/by/4.0/")
(set-info :category "industrial")
(set-info :major-phase |variable declarations|)
(declare-fun B1-F () Bool)
(declare-fun B2-F () Bool)
(declare-fun I3-i () Int)
(declare-fun I4-N () Int)
(declare-fun B5-F () Bool)
(declare-fun I5-i () Int)
(declare-fun B6-F () Bool)
(declare-fun B7-F () Bool)
(declare-fun B8-F () Bool)
(declare-fun B9-F () Bool)
(declare-fun I9-y () Int)
(declare-fun B10-F () Bool)
(declare-fun I10-N () Int)
(declare-fun B11-F () Bool)
(declare-fun I12 () Int)
(declare-fun I13 () Int)
(declare-fun I14 () Int)
(declare-fun I15 () Int)
(declare-fun I16 () Int)
(declare-fun I17 () Int)
(declare-fun I18 () Int)
(declare-fun I19 () Int)
(declare-fun I20 () Int)
(declare-fun B21-F () Bool)
(declare-fun I21-s-y () Int)
(declare-fun I21-s-m () Int)
(declare-fun I21-s-d () Int)
(declare-fun I21-e-y () Int)
(declare-fun I21-e-m () Int)
(declare-fun I21-e-d () Int)
(declare-fun B22-F () Bool)
(declare-fun I22-y () Int)
(declare-fun I22-m () Int)
(declare-fun I22-d () Int)
(declare-fun B23-F () Bool)
(declare-fun I23-y () Int)
(declare-fun I23-m () Int)
(declare-fun I23-d () Int)
(declare-fun B24-F () Bool)
(declare-fun B25-F () Bool)
(declare-fun B26-F () Bool)
(declare-fun I26 () Int)
(declare-fun B27-F () Bool)
(declare-fun I27 () Int)
(declare-fun B28-F () Bool)
(declare-fun I28 () Int)
(declare-fun B29-F () Bool)
(declare-fun B30-F () Bool)
(declare-fun B31-F () Bool)
(declare-fun I31 () Int)
(declare-fun B32-F () Bool)
(declare-fun I32 () Int)
(declare-fun B33-F () Bool)
(declare-fun I33 () Int)
(declare-fun B34-F () Bool)
(declare-fun B35-F () Bool)
(declare-fun B36-F () Bool)
(declare-fun I36 () Int)
(declare-fun B37-F () Bool)
(declare-fun I37 () Int)
(declare-fun B38-F () Bool)
(declare-fun I38 () Int)
(declare-fun I39-s-y () Int)
(declare-fun I39-s-m () Int)
(declare-fun I39-s-d () Int)
(declare-fun I39-e-y () Int)
(declare-fun I39-e-m () Int)
(declare-fun I39-e-d () Int)
(declare-fun I40 () Int)
(declare-fun I41 () Int)
(declare-fun I42 () Int)
(declare-fun I43 () Int)
(declare-fun I44 () Int)
(declare-fun I45 () Int)
(declare-fun I46 () Int)
(declare-fun I47 () Int)
(declare-fun I48 () Int)
(declare-fun I49 () Int)
(declare-fun I50 () Int)
(declare-fun I51 () Int)
(declare-fun I52 () Int)
(declare-fun I53 () Int)
(declare-fun I54 () Int)
(declare-fun I55 () Int)
(declare-fun I56 () Int)
(declare-fun I57 () Int)
(declare-fun I58 () Int)
(declare-fun I59 () Int)
(declare-fun I60 () Int)
(declare-fun I61 () Int)
(declare-fun I62 () Int)
(declare-fun I63 () Int)
(declare-fun I64 () Int)
(declare-fun I65 () Int)
(declare-fun I66 () Int)
(declare-fun I67 () Int)
(declare-fun I68 () Int)
(declare-fun I69 () Int)
(declare-fun B70-F () Bool)
(declare-fun B71-F () Bool)
(declare-fun I71 () Int)
(declare-fun B72-F () Bool)
(declare-fun I72 () Int)
(declare-fun B73-F () Bool)
(declare-fun B74-F () Bool)
(declare-fun I74-y () Int)
(declare-fun I74-m () Int)
(declare-fun I74-d () Int)
(declare-fun B75-F () Bool)
(declare-fun B76-F () Bool)
(declare-fun I76 () Int)
(declare-fun B77-F () Bool)
(declare-fun I77 () Int)
(declare-fun B78-F () Bool)
(declare-fun B79-F () Bool)
(declare-fun B80-F () Bool)
(declare-fun I80 () Int)
(declare-fun B81-F () Bool)
(declare-fun I81 () Int)
(declare-fun B82-F () Bool)
(declare-fun I82 () Int)
(declare-fun B83-F () Bool)
(declare-fun I83 () Int)
(declare-fun B84-F () Bool)
(declare-fun I84 () Int)
(declare-fun B85-F () Bool)
(declare-fun I85 () Int)
(declare-fun B86-F () Bool)
(declare-fun I86 () Int)
(declare-fun B87-F () Bool)
(declare-fun I87 () Int)
(declare-fun B88-F () Bool)
(declare-fun I88 () Int)
(declare-fun B89-F () Bool)
(declare-fun I89 () Int)
(declare-fun B90-F () Bool)
(declare-fun I90 () Int)
(declare-fun B91-F () Bool)
(declare-fun I91 () Int)
(declare-fun B92-F () Bool)
(declare-fun I92 () Int)
(declare-fun B93-F () Bool)
(declare-fun I93 () Int)
(declare-fun B94-F () Bool)
(declare-fun I94 () Int)
(declare-fun B95-F () Bool)
(declare-fun I95 () Int)
(declare-fun B96-F () Bool)
(declare-fun I96 () Int)
(declare-fun B97-F () Bool)
(declare-fun I98 () Int)
(declare-fun B99-F () Bool)
(declare-fun B100-F () Bool)
(declare-fun B101-F () Bool)
(declare-fun B102-F () Bool)
(declare-fun B103-F () Bool)
(declare-fun B104-F () Bool)
(declare-fun B105-F () Bool)
(declare-fun B106-F () Bool)
(declare-fun B107-F () Bool)
(declare-fun B108-F () Bool)
(declare-fun B109-F () Bool)
(set-info :major-phase |base constraints|)
(set-info :base-constraint-type ||)
(assert (or B1-F B9-F B10-F))
(set-info :base-constraint-type |constraints defining hierarchy (group is filled, if a child is filled)|)
(assert (= B73-F (or B74-F B75-F)))
(assert (= B75-F (or B76-F B77-F)))
(assert (= B99-F (or B100-F B101-F)))
(assert (= B70-F (or B71-F B72-F)))
(assert (or B21-F B22-F B23-F B24-F B29-F B34-F))
(assert (= B24-F (or B25-F B26-F B27-F B28-F)))
(assert (= B29-F (or B30-F B31-F B32-F B33-F)))
(assert (= B34-F (or B35-F B36-F B37-F B38-F)))
(assert (= B102-F (or B103-F B104-F)))
(assert (= B104-F (or B105-F B106-F B107-F B108-F)))
(assert (= B78-F (or B79-F B97-F)))
(assert (= B79-F (or B80-F B81-F B82-F B83-F B84-F B85-F B86-F B87-F B88-F B89-F B90-F B91-F B92-F B93-F B94-F B95-F B96-F)))
(set-info :base-constraint-type |domainconstraints number-fields|)
(assert (ite B76-F (and (<= I76 999999999999) (>= I76 0)) (= I76 0)))
(assert (ite B77-F (and (<= I77 999999999999) (>= I77 0)) (= I77 0)))
(assert (ite B71-F (and (<= I71 999999999999) (>= I71 (- 999999999999))) (= I71 0)))
(assert (ite B72-F (and (<= I72 99999999999999) (>= I72 (- 99999999999999))) (= I72 0)))
(assert (= I12 0))
(assert (= I13 0))
(assert (= I14 0))
(assert (= I15 0))
(assert (= I16 0))
(assert (= I17 0))
(assert (= I18 0))
(assert (= I19 0))
(assert (= I20 0))
(assert (= I49 0))
(assert (= I50 0))
(assert (= I51 0))
(assert (= I52 0))
(assert (= I53 0))
(assert (= I54 0))
(assert (= I55 0))
(assert (= I56 0))
(assert (= I57 0))
(assert (= I58 0))
(assert (= I59 0))
(assert (= I60 0))
(assert (= I61 0))
(assert (= I62 0))
(assert (= I63 0))
(assert (= I64 0))
(assert (= I65 0))
(assert (= I66 0))
(assert (= I67 0))
(assert (= I68 0))
(assert (= I69 0))
(assert (ite B26-F (and (<= I26 999999999999) (>= I26 (- 999999999999))) (= I26 0)))
(assert (ite B27-F (and (<= I27 999999999999) (>= I27 (- 999999999999))) (= I27 0)))
(assert (ite B28-F (and (<= I28 99999999999999) (>= I28 (- 99999999999999))) (= I28 0)))
(assert (ite B31-F (and (<= I31 999999999999) (>= I31 (- 999999999999))) (= I31 0)))
(assert (ite B32-F (and (<= I32 999999999999) (>= I32 (- 999999999999))) (= I32 0)))
(assert (ite B33-F (and (<= I33 99999999999999) (>= I33 (- 99999999999999))) (= I33 0)))
(assert (ite B36-F (and (<= I36 999999999999) (>= I36 (- 999999999999))) (= I36 0)))
(assert (ite B37-F (and (<= I37 999999999999) (>= I37 (- 999999999999))) (= I37 0)))
(assert (ite B38-F (and (<= I38 99999999999999) (>= I38 (- 99999999999999))) (= I38 0)))
(assert (= I40 0))
(assert (= I41 0))
(assert (= I42 0))
(assert (= I43 0))
(assert (= I44 0))
(assert (= I45 0))
(assert (= I46 0))
(assert (= I47 0))
(assert (= I48 0))
(assert (ite B83-F (and (<= I83 99999999999999) (>= I83 (- 9999999999999))) (= I83 0)))
(assert (ite B82-F (and (<= I82 99999999999999) (>= I82 (- 9999999999999))) (= I82 0)))
(assert (ite B80-F (and (<= I80 99999999999999) (>= I80 (- 9999999999999))) (= I80 0)))
(assert (ite B81-F (and (<= I81 99999999999999) (>= I81 (- 9999999999999))) (= I81 0)))
(assert (ite B84-F (and (<= I84 99999999999999) (>= I84 (- 9999999999999))) (= I84 0)))
(assert (ite B86-F (and (<= I86 99999999999999) (>= I86 (- 9999999999999))) (= I86 0)))
(assert (ite B85-F (and (<= I85 99999999999999) (>= I85 (- 9999999999999))) (= I85 0)))
(assert (ite B87-F (and (<= I87 99999999999999) (>= I87 (- 9999999999999))) (= I87 0)))
(assert (ite B88-F (and (<= I88 99999999999999) (>= I88 (- 9999999999999))) (= I88 0)))
(assert (ite B89-F (and (<= I89 99999999999999) (>= I89 (- 9999999999999))) (= I89 0)))
(assert (ite B90-F (and (<= I90 99999999999999) (>= I90 (- 9999999999999))) (= I90 0)))
(assert (ite B94-F (and (<= I94 99999999999999) (>= I94 (- 9999999999999))) (= I94 0)))
(assert (ite B91-F (and (<= I91 99999999999999) (>= I91 (- 9999999999999))) (= I91 0)))
(assert (ite B92-F (and (<= I92 99999999999999) (>= I92 (- 9999999999999))) (= I92 0)))
(assert (ite B93-F (and (<= I93 99999999999999) (>= I93 (- 9999999999999))) (= I93 0)))
(assert (ite B95-F (and (<= I95 99999999999999) (>= I95 (- 9999999999999))) (= I95 0)))
(assert (ite B96-F (and (<= I96 99999999999999) (>= I96 (- 9999999999999))) (= I96 0)))
(assert (ite B97-F (and (<= I98 99999999999999) (>= I98 (- 9999999999999))) (= I98 0)))
(set-info :base-constraint-type |domainconstraints date-fields|)
(assert (and (ite B74-F (and (> I74-y 1900) (< I74-y 2100)) (= I74-y 0)) (ite B74-F (and (> I74-m 0) (<= I74-m 12)) (= I74-m 0)) (ite B74-F (and (> I74-d 0) (<= I74-d (ite (or (= I74-m 0) (= I74-m 1) (= I74-m 3) (= I74-m 5) (= I74-m 7) (= I74-m 8) (= I74-m 10) (= I74-m 12)) 31 (ite (or (= I74-m 4) (= I74-m 6) (= I74-m 9) (= I74-m 11)) 30 (ite (= (mod I74-y 4) 0) 29 28))))) (= I74-d 0))))
(assert (ite B9-F (and (> I9-y 1900) (< I9-y 2100)) (= I9-y 0)))
(assert (and (ite B23-F (and (> I23-y 1900) (< I23-y 2100)) (= I23-y 0)) (ite B23-F (and (> I23-m 0) (<= I23-m 12)) (= I23-m 0)) (ite B23-F (and (> I23-d 0) (<= I23-d (ite (or (= I23-m 0) (= I23-m 1) (= I23-m 3) (= I23-m 5) (= I23-m 7) (= I23-m 8) (= I23-m 10) (= I23-m 12)) 31 (ite (or (= I23-m 4) (= I23-m 6) (= I23-m 9) (= I23-m 11)) 30 (ite (= (mod I23-y 4) 0) 29 28))))) (= I23-d 0))))
(assert (and (ite B22-F (and (> I22-y 1900) (< I22-y 2100)) (= I22-y 0)) (ite B22-F (and (> I22-m 0) (<= I22-m 12)) (= I22-m 0)) (ite B22-F (and (> I22-d 0) (<= I22-d (ite (or (= I22-m 0) (= I22-m 1) (= I22-m 3) (= I22-m 5) (= I22-m 7) (= I22-m 8) (= I22-m 10) (= I22-m 12)) 31 (ite (or (= I22-m 4) (= I22-m 6) (= I22-m 9) (= I22-m 11)) 30 (ite (= (mod I22-y 4) 0) 29 28))))) (= I22-d 0))))
(assert (or (< I21-s-y I21-e-y) (and (= I21-s-y I21-e-y) (< I21-s-m I21-e-m)) (and (= I21-s-y I21-e-y) (= I21-s-m I21-e-m) (<= I21-s-d I21-e-d))))
(assert (=> B21-F (and (>= I21-e-d 1) (<= I21-e-d (ite (or (= I21-e-m 0) (= I21-e-m 1) (= I21-e-m 3) (= I21-e-m 5) (= I21-e-m 7) (= I21-e-m 8) (= I21-e-m 10) (= I21-e-m 12)) 31 (ite (or (= I21-e-m 4) (= I21-e-m 6) (= I21-e-m 9) (= I21-e-m 11)) 30 (ite (= (mod I21-e-y 4) 0) 29 28)))))))
(assert (=> B21-F (and (>= I21-e-m 1) (<= I21-e-m 12))))
(assert (=> B21-F (and (>= I21-e-y 1901) (<= I21-e-y 2099))))
(assert (=> B21-F (and (>= I21-s-d 1) (<= I21-s-d (ite (or (= I21-s-m 0) (= I21-s-m 1) (= I21-s-m 3) (= I21-s-m 5) (= I21-s-m 7) (= I21-s-m 8) (= I21-s-m 10) (= I21-s-m 12)) 31 (ite (or (= I21-s-m 4) (= I21-s-m 6) (= I21-s-m 9) (= I21-s-m 11)) 30 (ite (= (mod I21-s-y 4) 0) 29 28)))))))
(assert (=> B21-F (and (>= I21-s-m 1) (<= I21-s-m 12))))
(assert (=> B21-F (and (>= I21-s-y 1901) (<= I21-s-y 2099))))
(assert (or (< I39-s-y I39-e-y) (and (= I39-s-y I39-e-y) (< I39-s-m I39-e-m)) (and (= I39-s-y I39-e-y) (= I39-s-m I39-e-m) (<= I39-s-d I39-e-d))))
(set-info :base-constraint-type |domainconstraints index-based string fields|)
(assert (or (= I4-N 0) (= I4-N 1)))
(assert (ite B10-F (or (= I10-N 1) (= I10-N 2) (= I10-N 3) (= I10-N 4) (= I10-N 5) (= I10-N 6) (= I10-N 7) (= I10-N 8) (= I10-N 9) (= I10-N 10) (= I10-N 11) (= I10-N 12)) (= I10-N 0)))
(assert (or (= I3-i 1) (= I3-i 2) (= I3-i 3) (= I3-i 4) (= I3-i 5) (= I3-i 6) (= I3-i 7) (= I3-i 8) (= I3-i 9) (= I3-i 10) (= I3-i 11) (= I3-i 12) (= I3-i 13) (= I3-i 14) (= I3-i 15)))
(assert (ite B5-F (or (= I5-i 1) (= I5-i 2) (= I5-i 3) (= I5-i 4) (= I5-i 5) (= I5-i 6) (= I5-i 7) (= I5-i 8) (= I5-i 9) (= I5-i 10) (= I5-i 11) (= I5-i 12) (= I5-i 13) (= I5-i 14) (= I5-i 15)) (= I5-i 0)))
(set-info :base-constraint-type |constraints, guarding filling of calculations|)
(assert (= (or B27-F B32-F B37-F) B71-F))
(assert (= (or B28-F B33-F B38-F) B72-F))
(assert (= (or B83-F B82-F B84-F B80-F B81-F B85-F B86-F B87-F B88-F B89-F B96-F B90-F B93-F B94-F B91-F B92-F B95-F B71-F) B97-F))
(set-info :base-constraint-type |constraints from validation-rules|)
(assert (not (and B77-F B76-F (distinct I76 0) (distinct I77 (div (* I76 15) 100)))))
(assert (not (and B74-F (or (< I74-y 2025) (> I74-y 2025)))))
(assert (not (and (or B101-F B100-F) (not (and B101-F B100-F)))))
(assert (not (and (or B27-F B32-F B37-F) (not B71-F))))
(assert (not (and (or B28-F B33-F B38-F) (not B72-F))))
(assert (not (and B71-F (not B80-F) (not B81-F) (not B82-F) (not B83-F) (not B84-F) (not B85-F) (not B86-F) (not B87-F) (not B88-F) (not B89-F) (not B90-F) (not B91-F) (not B92-F) (not B93-F) (not B94-F) (not B95-F) (not B96-F) (not B97-F))))
(assert (not (and B71-F (or B27-F B32-F B37-F) (distinct I71 (+ I13 I16 I19 I27 I32 I37 I41 I44 I47 I50 I53 I56 I59 I62 I65 I68)))))
(assert (not (and B72-F (or B28-F B33-F B38-F) (distinct I72 (+ I14 I17 I20 I28 I33 I38 I42 I45 I48 I51 I54 I57 I60 I63 I66 I69)))))
(assert (not (and B9-F (or (< I9-y 2025) (> I9-y 2025)))))
(assert (not (and B23-F B22-F (or (> I23-y I22-y) (and (= I23-y I22-y) (> I23-m I22-m)) (and (= I23-y I22-y) (= I23-m I22-m) (> I23-d I22-d))))))
(assert (not (and B22-F (or (distinct I22-y (ite B9-F I9-y 0)) (distinct I22-m I10-N)))))
(assert (not (and B22-F (< I22-y 2025))))
(assert (not (and (not (and B23-F B22-F B21-F)) (or B24-F B29-F B34-F))))
(assert (not (and (or B23-F B22-F B21-F) (not B24-F) (not B29-F) (not B34-F))))
(assert (not (and (or B26-F B31-F B36-F) (or (and (distinct I26 0) (= I27 0)) (and (distinct I31 0) (= I32 0)) (and (distinct I36 0) (= I37 0))))))
(assert (not (and B27-F B28-F (> (ite (>= (- I28 (div (* I27 55) 10)) 0) (- I28 (div (* I27 55) 10)) (- (- I28 (div (* I27 55) 10)))) 100))))
(assert (not (and (or B25-F B26-F B27-F B28-F) (not (and B25-F B26-F B27-F B28-F)))))
(assert (not (and (or B27-F B32-F B37-F) (or (> (* I27 100) (+ (* I26 15) 100)) (> (* I32 100) (+ (* I31 15) 100)) (> (* I37 100) (+ (* I36 15) 100))))))
(assert (not (and B32-F B33-F (> (ite (>= (- I33 (div (* I32 55) 10)) 0) (- I33 (div (* I32 55) 10)) (- (- I33 (div (* I32 55) 10)))) 100))))
(assert (not (and (or B30-F B31-F B32-F B33-F) (not (and B30-F B31-F B32-F B33-F)))))
(assert (not (and B37-F B38-F (> (ite (>= (- I38 (div (* I37 55) 10)) 0) (- I38 (div (* I37 55) 10)) (- (- I38 (div (* I37 55) 10)))) 100))))
(assert (not (and (or B35-F B36-F B37-F B38-F) (not (and B35-F B36-F B37-F B38-F)))))
(assert (not (and B21-F B22-F (or (> I21-e-y I22-y) (and (= I21-e-y I22-y) (> I21-e-m I22-m)) (and (= I21-e-y I22-y) (= I21-e-m I22-m) (> I21-e-d I22-d))))))
(assert (not (and B21-F (not B22-F))))
(assert (not (and B21-F (or (< I21-s-y (- I21-e-y 1)) (and (= I21-s-y (- I21-e-y 1)) (< I21-s-m I21-e-m)) (and (= I21-s-y (- I21-e-y 1)) (= I21-s-m I21-e-m) (< I21-s-d (+ I21-e-d 1)))))))
(assert (not (or (and (not B1-F) (not B2-F)) (and B1-F B2-F))))
(assert (not (and B1-F B74-F)))
(assert (not (and B1-F (not (and B9-F B10-F)))))
(assert (not (and B1-F B9-F B10-F (or (< 2026 I9-y) (and (= 2026 I9-y) (<= 6 I10-N))))))
(assert (not (and B1-F B9-F B10-F (or (< 2027 I9-y) (and (= 2027 I9-y) (<= 6 I10-N))))))
(assert (not (and B2-F (or B9-F B10-F B11-F B21-F B22-F B23-F B25-F B26-F B27-F B28-F B30-F B31-F B32-F B33-F B35-F B36-F B37-F B38-F B71-F B72-F))))
(assert (not (and B2-F (not (and B74-F B76-F B77-F)))))
(assert (not (and B103-F (not (and B105-F B106-F)))))
(assert (not (and (not B103-F) (or B105-F B106-F))))
(assert (not (and B5-F (= I4-N 0))))
(assert (not (and B5-F (= I5-i I3-i))))
(assert (not (and B73-F (not B2-F))))
(assert (not (and (or B83-F B82-F B84-F B80-F B81-F B85-F B86-F B87-F B88-F B89-F B96-F B90-F B93-F B94-F B91-F B92-F B95-F) (not B97-F))))
(assert (not (and B97-F (or B83-F B82-F B84-F B80-F B81-F B85-F B86-F B87-F B88-F B89-F B96-F B90-F B93-F B94-F B91-F B92-F B95-F) (distinct I98 (+ I83 I82 I84 I80 I81 I85 I86 I87 I88 I89 I96 I90 I93 I94 I91 I92 I95)))))
(assert (not (and B97-F (not B83-F) (not B82-F) (not B84-F) (not B80-F) (not B81-F) (not B85-F) (not B86-F) (not B87-F) (not B88-F) (not B89-F) (not B96-F) (not B90-F) (not B93-F) (not B94-F) (not B91-F) (not B92-F) (not B95-F))))
(assert (not (and B97-F B71-F (distinct I98 (* I71 100)))))
(set-info :major-phase |control constraints|)
(push 1)
(assert B106-F)
(set-info :status sat)
(check-sat)
(push 1)
(assert B22-F)
(set-info :status sat)
(check-sat)
(push 1)
(assert B33-F)
(set-info :status sat)
(check-sat)
(push 1)
(assert B32-F)
(set-info :status sat)
(check-sat)
(push 1)
(assert B84-F)
(set-info :status sat)
(check-sat)
(push 1)
(assert B97-F)
(set-info :status sat)
(check-sat)
(push 1)
(assert B85-F)
(set-info :status sat)
(check-sat)
(push 1)
(assert B21-F)
(set-info :status sat)
(check-sat)
(push 1)
(assert B8-F)
(set-info :status sat)
(check-sat)
(push 1)
(assert B108-F)
(set-info :status sat)
(check-sat)
(push 1)
(assert B6-F)
(set-info :status sat)
(check-sat)
(push 1)
(assert B23-F)
(set-info :status sat)
(check-sat)
(push 1)
(assert B91-F)
(set-info :status sat)
(check-sat)
(push 1)
(assert B92-F)
(set-info :status sat)
(check-sat)
(push 1)
(assert B25-F)
(set-info :status sat)
(check-sat)
(push 1)
(assert B94-F)
(set-info :status sat)
(check-sat)
(push 1)
(assert B80-F)
(set-info :status sat)
(check-sat)
(push 1)
(assert B81-F)
(set-info :status sat)
(check-sat)
(push 1)
(assert B76-F)
(set-info :status unsat)
(check-sat)
(pop 1)
(push 1)
(assert B28-F)
(set-info :status sat)
(check-sat)
(push 1)
(assert B93-F)
(set-info :status sat)
(check-sat)
(push 1)
(assert B27-F)
(set-info :status sat)
(check-sat)
(push 1)
(assert B35-F)
(set-info :status sat)
(check-sat)
(push 1)
(assert B83-F)
(set-info :status sat)
(check-sat)
(push 1)
(assert B107-F)
(set-info :status sat)
(check-sat)
(push 1)
(assert B82-F)
(set-info :status sat)
(check-sat)
(push 1)
(assert B90-F)
(set-info :status sat)
(check-sat)
(push 1)
(assert B105-F)
(set-info :status sat)
(check-sat)
(push 1)
(assert B10-F)
(set-info :status sat)
(check-sat)
(push 1)
(assert B103-F)
(set-info :status sat)
(check-sat)
(push 1)
(assert B2-F)
(set-info :status unsat)
(check-sat)
(pop 1)
(push 1)
(assert B101-F)
(set-info :status sat)
(check-sat)
(push 1)
(assert B26-F)
(set-info :status sat)
(check-sat)
(push 1)
(assert B95-F)
(set-info :status sat)
(check-sat)
(push 1)
(assert B77-F)
(set-info :status unsat)
(check-sat)
(pop 1)
(push 1)
(assert B89-F)
(set-info :status sat)
(check-sat)
(push 1)
(assert B96-F)
(set-info :status sat)
(check-sat)
(push 1)
(assert B109-F)
(set-info :status sat)
(check-sat)
(push 1)
(assert B31-F)
(set-info :status sat)
(check-sat)
(push 1)
(assert B7-F)
(set-info :status sat)
(check-sat)
(push 1)
(assert B9-F)
(set-info :status sat)
(check-sat)
(push 1)
(assert B88-F)
(set-info :status sat)
(check-sat)
(push 1)
(assert B74-F)
(set-info :status unsat)
(check-sat)
(pop 1)
(push 1)
(assert B71-F)
(set-info :status sat)
(check-sat)
(push 1)
(assert B87-F)
(set-info :status sat)
(check-sat)
(push 1)
(assert B5-F)
(set-info :status sat)
(check-sat)
(push 1)
(assert B11-F)
(set-info :status sat)
(check-sat)
(push 1)
(assert B36-F)
(set-info :status sat)
(check-sat)
(push 1)
(assert B100-F)
(set-info :status sat)
(check-sat)
(push 1)
(assert B38-F)
(set-info :status sat)
(check-sat)
(push 1)
(assert B72-F)
(set-info :status sat)
(check-sat)
(push 1)
(assert B37-F)
(set-info :status sat)
(check-sat)
(push 1)
(assert B30-F)
(set-info :status sat)
(check-sat)
(push 1)
(assert B86-F)
(set-info :status sat)
(check-sat)
(exit)

